120
150
54
45
51
53
51
50
60
54
51
46
59
47
44
40
50
45
59
51
53
46
54
51
56
52
50
51
42
58
51
40
52
45
49
45
41
53
49
45
56
60
49
52
54
45
41
57
48
45
47
58
57
51
42
49
47
58
54
50
49
54
42
50
51
59
49
59
54
51
57
51
42
49
59
51
44
51
42
52
45
58
48
50
58
47
56
40
54
60
60
54
56
57
46
47
60
45
50
53
60
47
45
59
59
60
50
51
49
47
50
53
44
60
40
54
46
45
51
44
50
56
